22 4
31 80 21 22 52 98 75 71 89 55 57 42 10 32 44 10 89 10 79 83 29 26
88 36 24 86 71 24 70 42 32 39 65 20 64 11 87 90 65 98 75 47 64 53
42 33 29 69 29 19 85 50 13 38 89 96 47 83 68 56 29 73 66 13 47 90
73 15 65 88 43 59 55 65 70 63 64 68 48 52 98 78 77 84 51 93 50 45
